6,1,11,1,12,1,5,1,9,1,3,1,10,1,2,1,4,1,7,1,8,1,1,1;6,2,11,2,12,2,5,2,9,2,3,2,10,2,2,2,4,2,7,2,8,2,1,2;11,3,6,3,12,3,5,3,9,3,3,3,10,3,2,3,4,3,7,3,8,3,1,3;11,4,6,4,12,4,5,4,9,4,10,4,3,4,2,4,4,4,7,4,8,4,1,4;11,5,12,5,6,5,5,5,9,5,10,5,3,5,4,5,2,5,7,5,8,5,1,5;
